Traveling Salesman Problem/TSP_generados/Aleatorio1621103973_18.tsp
NAME: Aleatorio1621103973_18.tsp
COMMENT: Randomly generated scenario
TYPE: TSP
DIMENSION: 18
EDGE_WEIGHT_TYPE: ATT
NODE_COORD_SECTION
1 17.39 45.45
2 3.01 17.31
3 14.22 31.34
4 36.39 40.6
5 23.6 41.07
6 37.53 15.93
7 46.2 33.16
8 29.94 21.97
9 34.07 16.38
10 42.04 11.07
11 6.2 7.53
12 22.44 9.46
13 43.68 2.38
14 11.73 15.65
15 39.16 41.99
16 16.39 22.56
17 41.58 26.19
18 39.73 3.08
