Traveling Salesman Problem/TSP_generados/Aleatorio1621103973_18.opt.tour
NAME: Aleatorio1621103973_18.opt.tour
COMMENT: Optimal solution for Aleatorio1621103973_18 (171.24589799993672)
TYPE: TOUR
DIMENSION: 18
TOUR_SECTION
1 3 16 14 2 11 12 18 13 10 6 9 8 17 7 15 4 5
-1
EOF
